<DOCUMENT>
<COLORDEN>-1</COLORDEN>
<TIPOORDEN>-1</TIPOORDEN>
<FILASPAGINA>0</FILASPAGINA>
<VISIBILIDAD>
	<VISIBLECOLUMNA name="idarticulo" >0</VISIBLECOLUMNA>
	<VISIBLECOLUMNA name="codigocompletoarticulo" >1</VISIBLECOLUMNA>
	<VISIBLECOLUMNA name="nomarticulo" >0</VISIBLECOLUMNA>
	<VISIBLECOLUMNA name="numlalbaranp" >0</VISIBLECOLUMNA>
	<VISIBLECOLUMNA name="desclalbaranp" >1</VISIBLECOLUMNA>
	<VISIBLECOLUMNA name="cantlalbaranp" >1</VISIBLECOLUMNA>
	<VISIBLECOLUMNA name="pvplalbaranp" >1</VISIBLECOLUMNA>
	<VISIBLECOLUMNA name="totallalbaranp" >1</VISIBLECOLUMNA>
	<VISIBLECOLUMNA name="ivalalbaranp" >0</VISIBLECOLUMNA>
	<VISIBLECOLUMNA name="reqeqlalbaranp" >0</VISIBLECOLUMNA>
	<VISIBLECOLUMNA name="descuentolalbaranp" >0</VISIBLECOLUMNA>
	<VISIBLECOLUMNA name="idalbaranp" >0</VISIBLECOLUMNA>
	<VISIBLECOLUMNA name="ordenlalbaranp" >0</VISIBLECOLUMNA>
</VISIBILIDAD>
<HORIZONTALHEADER>AAAA/wAAAAAAAAABAAAAAAAAAAwAAAAAAAAAAAAAAAANCRgAAAAEAAAADAAAAGQAAAALAAAAZAAAAAMAAABkAAAAAAAAAGQAAAOEAAAADQEBAQAAAAAAAAAAAAAAAABk/////wAAAIQAAAAAAAAABgAAAAAAAAABAAAAAAAAAMgAAAACAAAAAAAAAAAAAAABAAAAAAAAArwAAAAHAAAAAAAAAAAAAAABAAAAAAAAAAAAAAABAAAAAA==</HORIZONTALHEADER>
<COLUMNASHORIZONTALHEADER>AAAA/wAAAAAAAAABAAAAAQAAAAQAAAAAAAAAAAAAAAAEDAAAAAIAAAADAAAAAAAAAAIAAAAAAAAA/wAAAAQAAQEAAAAAAAAAAAABAAAAZP////8AAACEAAAAAAAAAAMAAACbAAAAAQAAAAMAAABkAAAAAQAAAAAAAAAAAAAAAgAAAAA=</COLUMNASHORIZONTALHEADER>
<ORDENCOLUMNAS>
	<ORDENCOLUMNA name="idarticulo" >0</ORDENCOLUMNA>
	<ORDENCOLUMNA name="codigocompletoarticulo" >1</ORDENCOLUMNA>
	<ORDENCOLUMNA name="nomarticulo" >2</ORDENCOLUMNA>
	<ORDENCOLUMNA name="numlalbaranp" >3</ORDENCOLUMNA>
	<ORDENCOLUMNA name="desclalbaranp" >4</ORDENCOLUMNA>
	<ORDENCOLUMNA name="cantlalbaranp" >5</ORDENCOLUMNA>
	<ORDENCOLUMNA name="pvplalbaranp" >6</ORDENCOLUMNA>
	<ORDENCOLUMNA name="totallalbaranp" >7</ORDENCOLUMNA>
	<ORDENCOLUMNA name="ivalalbaranp" >8</ORDENCOLUMNA>
	<ORDENCOLUMNA name="reqeqlalbaranp" >9</ORDENCOLUMNA>
	<ORDENCOLUMNA name="descuentolalbaranp" >10</ORDENCOLUMNA>
	<ORDENCOLUMNA name="idalbaranp" >11</ORDENCOLUMNA>
	<ORDENCOLUMNA name="ordenlalbaranp" >12</ORDENCOLUMNA>
</ORDENCOLUMNAS>
<VISIBILIDADMENU>1</VISIBILIDADMENU>
</DOCUMENT>
